(set-logic HORN)
(declare-datatypes ((Nat_472 0)) (((zero_123 ) (succ_120 (p_342 Nat_472)))))
(declare-fun diseqNat_472 (Nat_472 Nat_472) Bool)
(declare-fun p_343 (Nat_472 Nat_472) Bool)
(declare-fun iszero_120 (Nat_472) Bool)
(declare-fun issucc_120 (Nat_472) Bool)
(assert (forall ((x_51025 Nat_472))
	(p_343 x_51025 (succ_120 x_51025))))
(assert (iszero_120 zero_123))
(assert (forall ((x_51027 Nat_472))
	(issucc_120 (succ_120 x_51027))))
(assert (forall ((x_51028 Nat_472))
	(diseqNat_472 zero_123 (succ_120 x_51028))))
(assert (forall ((x_51029 Nat_472))
	(diseqNat_472 (succ_120 x_51029) zero_123)))
(assert (forall ((x_51030 Nat_472) (x_51031 Nat_472))
	(=> (diseqNat_472 x_51030 x_51031)
	    (diseqNat_472 (succ_120 x_51030) (succ_120 x_51031)))))
(declare-fun plus_117 (Nat_472 Nat_472 Nat_472) Bool)
(assert (forall ((x_50906 Nat_472) (z_1678 Nat_472) (y_1884 Nat_472))
	(=> (plus_117 x_50906 z_1678 y_1884)
	    (plus_117 (succ_120 x_50906) (succ_120 z_1678) y_1884))))
(assert (forall ((x_50907 Nat_472))
	(plus_117 x_50907 zero_123 x_50907)))
(declare-fun times_30 (Nat_472 Nat_472 Nat_472) Bool)
(assert (forall ((x_50908 Nat_472) (x_50909 Nat_472) (z_1679 Nat_472) (y_1885 Nat_472))
	(=>	(and (times_30 x_50909 z_1679 y_1885)
			(plus_117 x_50908 y_1885 x_50909))
		(times_30 x_50908 (succ_120 z_1679) y_1885))))
(assert (forall ((y_1885 Nat_472))
	(times_30 zero_123 zero_123 y_1885)))
(declare-fun addacc_16 (Nat_472 Nat_472 Nat_472 Nat_472) Bool)
(assert (forall ((x_50912 Nat_472) (x_50886 Nat_472) (y_1886 Nat_472) (z_1680 Nat_472))
	(=> (addacc_16 x_50912 x_50886 (succ_120 y_1886) z_1680)
	    (addacc_16 x_50912 (succ_120 x_50886) y_1886 z_1680))))
(assert (forall ((x_50914 Nat_472) (x_50887 Nat_472) (z_1680 Nat_472))
	(=> (addacc_16 x_50914 zero_123 x_50887 (succ_120 z_1680))
	    (addacc_16 x_50914 zero_123 (succ_120 x_50887) z_1680))))
(assert (forall ((x_50916 Nat_472))
	(addacc_16 x_50916 zero_123 zero_123 x_50916)))
(declare-fun mulacc_6 (Nat_472 Nat_472 Nat_472 Nat_472) Bool)
(assert (forall ((x_50917 Nat_472) (x_50918 Nat_472) (x_50919 Nat_472) (x_50920 Nat_472) (x_50921 Nat_472) (x_50922 Nat_472) (x_50923 Nat_472) (fail_26 Nat_472))
	(=>	(and (mulacc_6 x_50917 zero_123 zero_123 zero_123)
			(mulacc_6 x_50918 (succ_120 zero_123) zero_123 zero_123)
			(mulacc_6 x_50919 zero_123 (succ_120 zero_123) zero_123)
			(mulacc_6 x_50920 zero_123 zero_123 (succ_120 zero_123))
			(addacc_16 x_50921 x_50918 x_50919 x_50920)
			(addacc_16 x_50922 (succ_120 zero_123) (succ_120 zero_123) (succ_120 zero_123))
			(addacc_16 x_50923 x_50917 x_50921 x_50922)
			(plus_117 fail_26 (succ_120 zero_123) x_50923))
		(mulacc_6 (succ_120 zero_123) (succ_120 zero_123) (succ_120 zero_123) (succ_120 zero_123)))))
(assert (forall ((x_50926 Nat_472) (x_50927 Nat_472) (x_50928 Nat_472) (x_50929 Nat_472) (x_50930 Nat_472) (x_50931 Nat_472) (x_50932 Nat_472) (fail_26 Nat_472) (x_50891 Nat_472) (x_50890 Nat_472) (x_50889 Nat_472))
	(=>	(and (diseqNat_472 x_50889 zero_123)
			(mulacc_6 x_50926 x_50889 x_50890 x_50891)
			(mulacc_6 x_50927 (succ_120 zero_123) x_50890 x_50891)
			(mulacc_6 x_50928 x_50889 (succ_120 zero_123) x_50891)
			(mulacc_6 x_50929 x_50889 x_50890 (succ_120 zero_123))
			(addacc_16 x_50930 x_50927 x_50928 x_50929)
			(addacc_16 x_50931 (succ_120 x_50889) (succ_120 x_50890) (succ_120 x_50891))
			(addacc_16 x_50932 x_50926 x_50930 x_50931)
			(plus_117 fail_26 (succ_120 zero_123) x_50932))
		(mulacc_6 fail_26 (succ_120 x_50889) (succ_120 x_50890) (succ_120 x_50891)))))
(assert (forall ((x_50935 Nat_472) (x_50936 Nat_472) (x_50937 Nat_472) (x_50938 Nat_472) (x_50939 Nat_472) (x_50940 Nat_472) (x_50941 Nat_472) (fail_26 Nat_472) (x_50891 Nat_472) (x_50890 Nat_472))
	(=>	(and (diseqNat_472 x_50890 zero_123)
			(mulacc_6 x_50935 zero_123 x_50890 x_50891)
			(mulacc_6 x_50936 (succ_120 zero_123) x_50890 x_50891)
			(mulacc_6 x_50937 zero_123 (succ_120 zero_123) x_50891)
			(mulacc_6 x_50938 zero_123 x_50890 (succ_120 zero_123))
			(addacc_16 x_50939 x_50936 x_50937 x_50938)
			(addacc_16 x_50940 (succ_120 zero_123) (succ_120 x_50890) (succ_120 x_50891))
			(addacc_16 x_50941 x_50935 x_50939 x_50940)
			(plus_117 fail_26 (succ_120 zero_123) x_50941))
		(mulacc_6 fail_26 (succ_120 zero_123) (succ_120 x_50890) (succ_120 x_50891)))))
(assert (forall ((x_50944 Nat_472) (x_50945 Nat_472) (x_50946 Nat_472) (x_50947 Nat_472) (x_50948 Nat_472) (x_50949 Nat_472) (x_50950 Nat_472) (fail_26 Nat_472) (x_50891 Nat_472) (x_50890 Nat_472) (x_50889 Nat_472))
	(=>	(and (diseqNat_472 x_50889 zero_123)
			(mulacc_6 x_50944 x_50889 x_50890 x_50891)
			(mulacc_6 x_50945 (succ_120 zero_123) x_50890 x_50891)
			(mulacc_6 x_50946 x_50889 (succ_120 zero_123) x_50891)
			(mulacc_6 x_50947 x_50889 x_50890 (succ_120 zero_123))
			(addacc_16 x_50948 x_50945 x_50946 x_50947)
			(addacc_16 x_50949 (succ_120 x_50889) (succ_120 x_50890) (succ_120 x_50891))
			(addacc_16 x_50950 x_50944 x_50948 x_50949)
			(plus_117 fail_26 (succ_120 zero_123) x_50950))
		(mulacc_6 fail_26 (succ_120 x_50889) (succ_120 x_50890) (succ_120 x_50891)))))
(assert (forall ((x_50953 Nat_472) (x_50954 Nat_472) (x_50955 Nat_472) (x_50956 Nat_472) (x_50957 Nat_472) (x_50958 Nat_472) (x_50959 Nat_472) (fail_26 Nat_472) (x_50891 Nat_472))
	(=>	(and (diseqNat_472 x_50891 zero_123)
			(mulacc_6 x_50953 zero_123 zero_123 x_50891)
			(mulacc_6 x_50954 (succ_120 zero_123) zero_123 x_50891)
			(mulacc_6 x_50955 zero_123 (succ_120 zero_123) x_50891)
			(mulacc_6 x_50956 zero_123 zero_123 (succ_120 zero_123))
			(addacc_16 x_50957 x_50954 x_50955 x_50956)
			(addacc_16 x_50958 (succ_120 zero_123) (succ_120 zero_123) (succ_120 x_50891))
			(addacc_16 x_50959 x_50953 x_50957 x_50958)
			(plus_117 fail_26 (succ_120 zero_123) x_50959))
		(mulacc_6 fail_26 (succ_120 zero_123) (succ_120 zero_123) (succ_120 x_50891)))))
(assert (forall ((x_50962 Nat_472) (x_50963 Nat_472) (x_50964 Nat_472) (x_50965 Nat_472) (x_50966 Nat_472) (x_50967 Nat_472) (x_50968 Nat_472) (fail_26 Nat_472) (x_50891 Nat_472) (x_50890 Nat_472) (x_50889 Nat_472))
	(=>	(and (diseqNat_472 x_50889 zero_123)
			(mulacc_6 x_50962 x_50889 x_50890 x_50891)
			(mulacc_6 x_50963 (succ_120 zero_123) x_50890 x_50891)
			(mulacc_6 x_50964 x_50889 (succ_120 zero_123) x_50891)
			(mulacc_6 x_50965 x_50889 x_50890 (succ_120 zero_123))
			(addacc_16 x_50966 x_50963 x_50964 x_50965)
			(addacc_16 x_50967 (succ_120 x_50889) (succ_120 x_50890) (succ_120 x_50891))
			(addacc_16 x_50968 x_50962 x_50966 x_50967)
			(plus_117 fail_26 (succ_120 zero_123) x_50968))
		(mulacc_6 fail_26 (succ_120 x_50889) (succ_120 x_50890) (succ_120 x_50891)))))
(assert (forall ((x_50971 Nat_472) (x_50972 Nat_472) (x_50973 Nat_472) (x_50974 Nat_472) (x_50975 Nat_472) (x_50976 Nat_472) (x_50977 Nat_472) (fail_26 Nat_472) (x_50891 Nat_472) (x_50890 Nat_472))
	(=>	(and (diseqNat_472 x_50890 zero_123)
			(mulacc_6 x_50971 zero_123 x_50890 x_50891)
			(mulacc_6 x_50972 (succ_120 zero_123) x_50890 x_50891)
			(mulacc_6 x_50973 zero_123 (succ_120 zero_123) x_50891)
			(mulacc_6 x_50974 zero_123 x_50890 (succ_120 zero_123))
			(addacc_16 x_50975 x_50972 x_50973 x_50974)
			(addacc_16 x_50976 (succ_120 zero_123) (succ_120 x_50890) (succ_120 x_50891))
			(addacc_16 x_50977 x_50971 x_50975 x_50976)
			(plus_117 fail_26 (succ_120 zero_123) x_50977))
		(mulacc_6 fail_26 (succ_120 zero_123) (succ_120 x_50890) (succ_120 x_50891)))))
(assert (forall ((x_50980 Nat_472) (x_50981 Nat_472) (x_50982 Nat_472) (x_50983 Nat_472) (x_50984 Nat_472) (x_50985 Nat_472) (x_50986 Nat_472) (fail_26 Nat_472) (x_50891 Nat_472) (x_50890 Nat_472) (x_50889 Nat_472))
	(=>	(and (diseqNat_472 x_50889 zero_123)
			(mulacc_6 x_50980 x_50889 x_50890 x_50891)
			(mulacc_6 x_50981 (succ_120 zero_123) x_50890 x_50891)
			(mulacc_6 x_50982 x_50889 (succ_120 zero_123) x_50891)
			(mulacc_6 x_50983 x_50889 x_50890 (succ_120 zero_123))
			(addacc_16 x_50984 x_50981 x_50982 x_50983)
			(addacc_16 x_50985 (succ_120 x_50889) (succ_120 x_50890) (succ_120 x_50891))
			(addacc_16 x_50986 x_50980 x_50984 x_50985)
			(plus_117 fail_26 (succ_120 zero_123) x_50986))
		(mulacc_6 fail_26 (succ_120 x_50889) (succ_120 x_50890) (succ_120 x_50891)))))
(assert (forall ((x_50890 Nat_472) (x_50889 Nat_472))
	(mulacc_6 zero_123 (succ_120 x_50889) (succ_120 x_50890) zero_123)))
(assert (forall ((x_50889 Nat_472) (z_1681 Nat_472))
	(mulacc_6 zero_123 (succ_120 x_50889) zero_123 z_1681)))
(assert (forall ((y_1887 Nat_472) (z_1681 Nat_472))
	(mulacc_6 zero_123 zero_123 y_1887 z_1681)))
(assert (forall ((x_50992 Nat_472) (x_50993 Nat_472) (x_50994 Nat_472) (x_50892 Nat_472) (y_1888 Nat_472) (z_1682 Nat_472))
	(=>	(and true
			(diseqNat_472 x_50992 x_50994)
			(mulacc_6 x_50992 x_50892 y_1888 z_1682)
			(times_30 x_50993 x_50892 y_1888)
			(times_30 x_50994 x_50993 z_1682))
		false)))
(assert (forall ((x_50995 Nat_472) (x_50996 Nat_472) (x_50997 Nat_472) (x_50998 Nat_472) (x_50893 Nat_472) (y_1889 Nat_472) (z_1683 Nat_472))
	(=>	(and true
			(diseqNat_472 x_50996 x_50998)
			(times_30 x_50995 y_1889 z_1683)
			(times_30 x_50996 x_50893 x_50995)
			(times_30 x_50997 x_50893 y_1889)
			(times_30 x_50998 x_50997 z_1683))
		false)))
(assert (forall ((x_50999 Nat_472) (x_51000 Nat_472) (x_51001 Nat_472) (x_51002 Nat_472) (x_50894 Nat_472) (y_1890 Nat_472) (z_1684 Nat_472))
	(=>	(and true
			(diseqNat_472 x_51000 x_51002)
			(plus_117 x_50999 y_1890 z_1684)
			(plus_117 x_51000 x_50894 x_50999)
			(plus_117 x_51001 x_50894 y_1890)
			(plus_117 x_51002 x_51001 z_1684))
		false)))
(assert (forall ((x_51003 Nat_472) (x_51004 Nat_472) (x_50895 Nat_472) (y_1891 Nat_472))
	(=>	(and true
			(diseqNat_472 x_51003 x_51004)
			(times_30 x_51003 x_50895 y_1891)
			(times_30 x_51004 y_1891 x_50895))
		false)))
(assert (forall ((x_51005 Nat_472) (x_51006 Nat_472) (x_50896 Nat_472) (y_1892 Nat_472))
	(=>	(and true
			(diseqNat_472 x_51005 x_51006)
			(plus_117 x_51005 x_50896 y_1892)
			(plus_117 x_51006 y_1892 x_50896))
		false)))
(assert (forall ((x_51007 Nat_472) (x_51008 Nat_472) (x_51009 Nat_472) (x_51010 Nat_472) (x_51011 Nat_472) (x_50897 Nat_472) (y_1893 Nat_472) (z_1685 Nat_472))
	(=>	(and true
			(diseqNat_472 x_51008 x_51011)
			(plus_117 x_51007 y_1893 z_1685)
			(times_30 x_51008 x_50897 x_51007)
			(times_30 x_51009 x_50897 y_1893)
			(times_30 x_51010 x_50897 z_1685)
			(plus_117 x_51011 x_51009 x_51010))
		false)))
(assert (forall ((x_51012 Nat_472) (x_51013 Nat_472) (x_51014 Nat_472) (x_51015 Nat_472) (x_51016 Nat_472) (x_50898 Nat_472) (y_1894 Nat_472) (z_1686 Nat_472))
	(=>	(and true
			(diseqNat_472 x_51013 x_51016)
			(plus_117 x_51012 x_50898 y_1894)
			(times_30 x_51013 x_51012 z_1686)
			(times_30 x_51014 x_50898 z_1686)
			(times_30 x_51015 y_1894 z_1686)
			(plus_117 x_51016 x_51014 x_51015))
		false)))
(assert (forall ((x_51017 Nat_472) (x_50899 Nat_472))
	(=>	(and true
			(diseqNat_472 x_51017 x_50899)
			(times_30 x_51017 x_50899 (succ_120 zero_123)))
		false)))
(assert (forall ((x_51018 Nat_472) (x_50900 Nat_472))
	(=>	(and true
			(diseqNat_472 x_51018 x_50900)
			(times_30 x_51018 (succ_120 zero_123) x_50900))
		false)))
(assert (forall ((x_51019 Nat_472) (x_50901 Nat_472))
	(=>	(and true
			(diseqNat_472 x_51019 x_50901)
			(plus_117 x_51019 x_50901 zero_123))
		false)))
(assert (forall ((x_51020 Nat_472) (x_50902 Nat_472))
	(=>	(and true
			(diseqNat_472 x_51020 x_50902)
			(plus_117 x_51020 zero_123 x_50902))
		false)))
(assert (forall ((x_51021 Nat_472) (x_50903 Nat_472))
	(=>	(and true
			(diseqNat_472 x_51021 zero_123)
			(times_30 x_51021 x_50903 zero_123))
		false)))
(assert (forall ((x_51022 Nat_472) (x_50904 Nat_472))
	(=>	(and true
			(diseqNat_472 x_51022 zero_123)
			(times_30 x_51022 zero_123 x_50904))
		false)))
(check-sat)
